(set-logic QF_SLIA)
(set-option :produce-models true)
(declare-const X String)
; ^(\$)?(([1-9]\d{0,2}(\,\d{3})*)|([1-9]\d*)|(0))(\.\d{2})?$
(assert (not (str.in_re X (re.++ (re.opt (str.to_re "$")) (re.union (re.++ (re.range "1" "9") ((_ re.loop 0 2) (re.range "0" "9")) (re.* (re.++ (str.to_re ",") ((_ re.loop 3 3) (re.range "0" "9"))))) (re.++ (re.range "1" "9") (re.* (re.range "0" "9"))) (str.to_re "0")) (re.opt (re.++ (str.to_re ".") ((_ re.loop 2 2) (re.range "0" "9")))) (str.to_re "\u{0a}")))))
; /\u{2e}webm([\?\u{5c}\u{2f}]|$)/smiU
(assert (str.in_re X (re.++ (str.to_re "/.webm") (re.union (str.to_re "?") (str.to_re "\u{5c}") (str.to_re "/")) (str.to_re "/smiU\u{0a}"))))
; /\/software\u{2e}php\u{3f}[0-9]{15,}/Ui
(assert (str.in_re X (re.++ (str.to_re "//software.php?/Ui\u{0a}") ((_ re.loop 15 15) (re.range "0" "9")) (re.* (re.range "0" "9")))))
; ^[A-Z0-9<]{9}[0-9]{1}[A-Z]{3}[0-9]{7}[A-Z]{1}[0-9]{7}[A-Z0-9<]{14}[0-9]{2}$
(assert (not (str.in_re X (re.++ ((_ re.loop 9 9) (re.union (re.range "A" "Z") (re.range "0" "9") (str.to_re "<"))) ((_ re.loop 1 1) (re.range "0" "9")) ((_ re.loop 3 3) (re.range "A" "Z")) ((_ re.loop 7 7) (re.range "0" "9")) ((_ re.loop 1 1) (re.range "A" "Z")) ((_ re.loop 7 7) (re.range "0" "9")) ((_ re.loop 14 14) (re.union (re.range "A" "Z") (re.range "0" "9") (str.to_re "<"))) ((_ re.loop 2 2) (re.range "0" "9")) (str.to_re "\u{0a}")))))
; ^(([0-9]{3})[-]?)*[0-9]{6,7}$
(assert (not (str.in_re X (re.++ (re.* (re.++ ((_ re.loop 3 3) (re.range "0" "9")) (re.opt (str.to_re "-")))) ((_ re.loop 6 7) (re.range "0" "9")) (str.to_re "\u{0a}")))))
(assert (> (str.len X) 10))
(check-sat)
